p cnf 5 81
6 7 8 9 10 0
11 12 13 14 15 0
16 17 18 19 20 0
21 22 23 24 25 0
26 27 28 29 30 0
31 32 33 34 35 0
-6 -11 0
-6 -16 0
-6 -21 0
-6 -26 0
-6 -31 0
-11 -16 0
-11 -21 0
-11 -26 0
-11 -31 0
-16 -21 0
-16 -26 0
-16 -31 0
-21 -26 0
-21 -31 0
-26 -31 0
-7 -12 0
-7 -17 0
-7 -22 0
-7 -27 0
-7 -32 0
-12 -17 0
-12 -22 0
-12 -27 0
-12 -32 0
-17 -22 0
-17 -27 0
-17 -32 0
-22 -27 0
-22 -32 0
-27 -32 0
-8 -13 0
-8 -18 0
-8 -23 0
-8 -28 0
-8 -33 0
-13 -18 0
-13 -23 0
-13 -28 0
-13 -33 0
-18 -23 0
-18 -28 0
-18 -33 0
-23 -28 0
-23 -33 0
-28 -33 0
-9 -14 0
-9 -19 0
-9 -24 0
-9 -29 0
-9 -34 0
-14 -19 0
-14 -24 0
-14 -29 0
-14 -34 0
-19 -24 0
-19 -29 0
-19 -34 0
-24 -29 0
-24 -34 0
-29 -34 0
-10 -15 0
-10 -20 0
-10 -25 0
-10 -30 0
-10 -35 0
-15 -20 0
-15 -25 0
-15 -30 0
-15 -35 0
-20 -25 0
-20 -30 0
-20 -35 0
-25 -30 0
-25 -35 0
-30 -35 0
